
Gurobi 11.0.3 (linux64) logging started Sat Nov 23 18:48:41 2024

Set parameter LogFile to value "/home/yihong/Coding/OR_SUC/SUC_results_bigM100000_thread4/case24_ieee_rts_theta0.5_epsilon0.025_gurobi_seed1040000_num_gen100_N_WDR150_load_scaling_factor1_exact_T24quadra_cost.txt"
Set parameter TimeLimit to value 3600
Gurobi Optimizer version 11.0.3 build v11.0.3rc0 (linux64 - "Ubuntu 20.04.6 LTS")

CPU model: AMD EPYC 7532 32-Core Processor, instruction set [SSE2|AVX|AVX2]
Thread count: 64 physical cores, 128 logical processors, using up to 4 threads

Optimize a model with 54015 rows, 30061 columns and 917478 nonzeros
Model fingerprint: 0xb1b2d041
Model has 2400 quadratic constraints
Variable types: 27511 continuous, 2550 integer (2550 binary)
Coefficient statistics:
  Matrix range     [3e-04, 1e+05]
  QMatrix range    [2e-03, 8e-03]
  QLMatrix range   [2e-01, 6e+01]
  Objective range  [1e+00, 1e+00]
  Bounds range     [1e+00, 1e+00]
  RHS range        [1e+00, 1e+05]
Presolve removed 43842 rows and 12898 columns
Presolve time: 0.31s
Presolved: 10173 rows, 17163 columns, 55261 nonzeros
Presolved model has 2400 quadratic constraint(s)
Variable types: 14687 continuous, 2476 integer (2476 binary)

Root relaxation: objective 7.257289e+04, 8473 iterations, 0.22 seconds (0.31 work units)

    Nodes    |    Current Node    |     Objective Bounds      |     Work
 Expl Unexpl |  Obj  Depth IntInf | Incumbent    BestBd   Gap | It/Node Time

     0     0 72572.8863    0    6          - 72572.8863      -     -    0s
     0     0 400759.901    0  588          - 400759.901      -     -    1s
     0     0 455639.822    0  590          - 455639.822      -     -    1s
     0     0 664627.665    0  572          - 664627.665      -     -    1s
     0     0 664670.963    0  377          - 664670.963      -     -    1s
     0     0 664846.493    0  329          - 664846.493      -     -    1s
     0     0 664849.364    0  329          - 664849.364      -     -    1s
     0     0 664849.364    0  329          - 664849.364      -     -    1s
     0     0 664849.364    0  329          - 664849.364      -     -    2s
     0     2 664857.674    0  329          - 664857.674      -     -    2s
H  395   273                    665075.11482 664901.689  0.03%  55.3    4s
*  395   273             134    665075.11482 664901.689  0.03%  55.3    4s

Cutting planes:
  Gomory: 4
  Implied bound: 245
  MIR: 113
  Flow cover: 104
  Relax-and-lift: 66

Explored 433 nodes (45403 simplex iterations) in 5.29 seconds (6.74 work units)
Thread count was 4 (of 128 available processors)

Solution count 2: 665075 665075 

Optimal solution found (tolerance 1.00e-03)
Warning: max constraint violation (6.7987e-07) exceeds tolerance
Best objective 6.650751148235e+05, best bound 6.649016892927e+05, gap 0.0261%
